14
-1 65 45 27 95 71 63 76 94 25 66 40 78 89
33 -1 36 67 6 93 74 67 97 84 42 2 23 20
10 54 -1 71 50 7 54 54 7 10 90 87 10 81
90 16 18 -1 20 42 69 23 60 90 96 47 78 19
90 52 26 12 -1 17 34 82 6 97 71 18 67 27
60 76 64 85 53 -1 55 77 43 46 97 36 95 57
85 8 28 15 35 29 -1 67 1 78 7 96 70 46
87 9 12 46 12 66 37 -1 5 53 29 80 21 62
50 6 77 16 79 83 46 87 -1 73 52 51 44 58
10 22 84 42 61 90 15 33 67 -1 81 91 38 17
34 17 16 74 9 32 58 1 28 56 -1 65 45 87
66 89 62 98 34 29 61 93 16 21 81 -1 60 26
30 27 24 78 90 25 62 38 76 10 57 39 -1 77
82 73 59 29 81 64 56 19 91 3 91 79 33 -1
